Minimize
 obj: 0 X_0_1
Subject To
 out_0:
  + 1 X_0_1 + 1 X_0_2 + 1 X_0_3 + 1 X_0_4
  = 1
 in_0:
  + 1 X_1_0 + 1 X_2_0 + 1 X_3_0 + 1 X_4_0
  = 1
 out_1:
  + 1 X_1_0 + 1 X_1_2 + 1 X_1_3 + 1 X_1_4
  = 1
 in_1:
  + 1 X_0_1 + 1 X_2_1 + 1 X_3_1 + 1 X_4_1
  = 1
 out_2:
  + 1 X_2_0 + 1 X_2_1 + 1 X_2_3 + 1 X_2_4
  = 1
 in_2:
  + 1 X_0_2 + 1 X_1_2 + 1 X_3_2 + 1 X_4_2
  = 1
 out_3:
  + 1 X_3_0 + 1 X_3_1 + 1 X_3_2 + 1 X_3_4
  = 1
 in_3:
  + 1 X_0_3 + 1 X_1_3 + 1 X_2_3 + 1 X_4_3
  = 1
 out_4:
  + 1 X_4_0 + 1 X_4_1 + 1 X_4_2 + 1 X_4_3
  = 1
 in_4:
  + 1 X_0_4 + 1 X_1_4 + 1 X_2_4 + 1 X_3_4
  = 1
 mtz_1_2:
  + 1 U1 - 1 U2 + 4 X_1_2
  <= 3
 mtz_1_3:
  + 1 U1 - 1 U3 + 4 X_1_3
  <= 3
 mtz_1_4:
  + 1 U1 - 1 U4 + 4 X_1_4
  <= 3
 mtz_2_1:
  + 1 U2 - 1 U1 + 4 X_2_1
  <= 3
 mtz_2_3:
  + 1 U2 - 1 U3 + 4 X_2_3
  <= 3
 mtz_2_4:
  + 1 U2 - 1 U4 + 4 X_2_4
  <= 3
 mtz_3_1:
  + 1 U3 - 1 U1 + 4 X_3_1
  <= 3
 mtz_3_2:
  + 1 U3 - 1 U2 + 4 X_3_2
  <= 3
 mtz_3_4:
  + 1 U3 - 1 U4 + 4 X_3_4
  <= 3
 mtz_4_1:
  + 1 U4 - 1 U1 + 4 X_4_1
  <= 3
 mtz_4_2:
  + 1 U4 - 1 U2 + 4 X_4_2
  <= 3
 mtz_4_3:
  + 1 U4 - 1 U3 + 4 X_4_3
  <= 3
 obj1:
  + 102 X_0_1 + 475 X_0_2 + 247 X_0_3 + 298 X_0_4 + 102 X_1_0 + 427 X_1_2 + 347 X_1_3 + 283 X_1_4
  + 475 X_2_0 + 427 X_2_1 + 604 X_2_3 + 200 X_2_4 + 247 X_3_0 + 347 X_3_1 + 604 X_3_2 + 403 X_3_4
  + 298 X_4_0 + 283 X_4_1 + 200 X_4_2 + 403 X_4_3
  <= 1
 obj2:
  + 647 X_0_1 + 501 X_0_2 + 282 X_0_3 + 635 X_0_4 + 647 X_1_0 + 258 X_1_2 + 584 X_1_3 + 13 X_1_4
  + 501 X_2_0 + 258 X_2_1 + 559 X_2_3 + 254 X_2_4 + 282 X_3_0 + 584 X_3_1 + 559 X_3_2 + 571 X_3_4
  + 635 X_4_0 + 13 X_4_1 + 254 X_4_2 + 571 X_4_3
  <= 2
 obj3:
  + 459 X_0_1 + 198 X_0_2 + 92 X_0_3 + 726 X_0_4 + 459 X_1_0 + 442 X_1_2 + 550 X_1_3 + 907 X_1_4
  + 198 X_2_0 + 442 X_2_1 + 252 X_2_3 + 552 X_2_4 + 92 X_3_0 + 550 X_3_1 + 252 X_3_2 + 734 X_3_4
  + 726 X_4_0 + 907 X_4_1 + 552 X_4_2 + 734 X_4_3
  <= 3
 obj4:
  + 327 X_0_1 + 839 X_0_2 + 359 X_0_3 + 597 X_0_4 + 327 X_1_0 + 711 X_1_2 + 358 X_1_3 + 520 X_1_4
  + 839 X_2_0 + 711 X_2_1 + 484 X_2_3 + 247 X_2_4 + 359 X_3_0 + 358 X_3_1 + 484 X_3_2 + 239 X_3_4
  + 597 X_4_0 + 520 X_4_1 + 247 X_4_2 + 239 X_4_3
  <= 4
 obj5:
  + 216 X_0_1 + 205 X_0_2 + 911 X_0_3 + 886 X_0_4 + 216 X_1_0 + 408 X_1_2 + 782 X_1_3 + 907 X_1_4
  + 205 X_2_0 + 408 X_2_1 + 976 X_2_3 + 809 X_2_4 + 911 X_3_0 + 782 X_3_1 + 976 X_3_2 + 625 X_3_4
  + 886 X_4_0 + 907 X_4_1 + 809 X_4_2 + 625 X_4_3
  <= 5
 obj6:
  + 968 X_0_1 + 956 X_0_2 + 226 X_0_3 + 621 X_0_4 + 968 X_1_0 + 62 X_1_2 + 832 X_1_3 + 437 X_1_4
  + 956 X_2_0 + 62 X_2_1 + 808 X_2_3 + 458 X_2_4 + 226 X_3_0 + 832 X_3_1 + 808 X_3_2 + 572 X_3_4
  + 621 X_4_0 + 437 X_4_1 + 458 X_4_2 + 572 X_4_3
  <= 6
 obj7:
  + 497 X_0_1 + 585 X_0_2 + 348 X_0_3 + 818 X_0_4 + 497 X_1_0 + 785 X_1_2 + 263 X_1_3 + 324 X_1_4
  + 585 X_2_0 + 785 X_2_1 + 524 X_2_3 + 993 X_2_4 + 348 X_3_0 + 263 X_3_1 + 524 X_3_2 + 527 X_3_4
  + 818 X_4_0 + 324 X_4_1 + 993 X_4_2 + 527 X_4_3
  <= 7
Bounds
 1 <= U1 <= 4
 1 <= U2 <= 4
 1 <= U3 <= 4
 1 <= U4 <= 4
Binary
 X_0_1
 X_0_2
 X_0_3
 X_0_4
 X_1_0
 X_1_2
 X_1_3
 X_1_4
 X_2_0
 X_2_1
 X_2_3
 X_2_4
 X_3_0
 X_3_1
 X_3_2
 X_3_4
 X_4_0
 X_4_1
 X_4_2
 X_4_3
End
